p edge 20 20
v 1 5
v 2 1
v 3 5
v 4 7
v 5 9
v 6 8
v 7 7
v 8 6
v 9 9
v 10 6
v 11 8
v 12 4
v 13 3
v 14 10
v 15 4
v 16 5
v 17 2
v 18 2
v 19 10
v 20 7
e 1 2
e 1 3
e 2 3
e 4 6
e 4 7
e 4 12
e 4 18
e 5 15
e 6 7
e 6 12
e 6 18
e 7 12
e 7 18
e 8 13
e 9 10
e 12 18
e 13 17
e 14 19
e 14 20
e 19 20
